(set-option :produce-models true)
(set-logic QF_UF)
(declare-fun p20() Bool)
(declare-fun p94() Bool)
(declare-fun p74() Bool)
(declare-fun p18() Bool)
(declare-fun p86() Bool)
(declare-fun p45() Bool)
(declare-fun p92() Bool)
(declare-fun p57() Bool)
(declare-fun p81() Bool)
(declare-fun p28() Bool)
(declare-fun p32() Bool)
(declare-fun p24() Bool)
(declare-fun p0() Bool)
(declare-fun p7() Bool)
(declare-fun p8() Bool)
(declare-fun p5() Bool)
(declare-fun p91() Bool)
(declare-fun p37() Bool)
(declare-fun p16() Bool)
(declare-fun p55() Bool)
(declare-fun p70() Bool)
(declare-fun p79() Bool)
(declare-fun p15() Bool)
(declare-fun p75() Bool)
(declare-fun p48() Bool)
(declare-fun p22() Bool)
(declare-fun p78() Bool)
(declare-fun p68() Bool)
(declare-fun p56() Bool)
(declare-fun p25() Bool)
(declare-fun p3() Bool)
(declare-fun p71() Bool)
(declare-fun p88() Bool)
(declare-fun p67() Bool)
(declare-fun p95() Bool)
(declare-fun p83() Bool)
(declare-fun p89() Bool)
(declare-fun p98() Bool)
(declare-fun p1() Bool)
(declare-fun p63() Bool)
(declare-fun p59() Bool)
(declare-fun p17() Bool)
(declare-fun p11() Bool)
(declare-fun p2() Bool)
(declare-fun p62() Bool)
(declare-fun p14() Bool)
(declare-fun p99() Bool)
(declare-fun p31() Bool)
(declare-fun p93() Bool)
(declare-fun p29() Bool)
(declare-fun p76() Bool)
(declare-fun p38() Bool)
(declare-fun p23() Bool)
(declare-fun p84() Bool)
(declare-fun p12() Bool)
(declare-fun p50() Bool)
(declare-fun p66() Bool)
(declare-fun p30() Bool)
(declare-fun p42() Bool)
(declare-fun p47() Bool)
(declare-fun p64() Bool)
(declare-fun p44() Bool)
(declare-fun p10() Bool)
(declare-fun p4() Bool)
(declare-fun p80() Bool)
(declare-fun p97() Bool)
(declare-fun p61() Bool)
(declare-fun p65() Bool)
(declare-fun p26() Bool)
(declare-fun p13() Bool)
(declare-fun p40() Bool)
(declare-fun p87() Bool)
(declare-fun p82() Bool)
(declare-fun p53() Bool)
(declare-fun p41() Bool)
(declare-fun p52() Bool)
(declare-fun p72() Bool)
(declare-fun p77() Bool)
(declare-fun p21() Bool)
(declare-fun p49() Bool)
(declare-fun p96() Bool)
(declare-fun p51() Bool)
(declare-fun p69() Bool)
(declare-fun p19() Bool)
(declare-fun p27() Bool)
(declare-fun p34() Bool)
(declare-fun p39() Bool)
(declare-fun p73() Bool)
(declare-fun p6() Bool)
(declare-fun p85() Bool)
(declare-fun p90() Bool)
(declare-fun p36() Bool)
(declare-fun p35() Bool)
(declare-fun p54() Bool)
(declare-fun p58() Bool)
(declare-fun p9() Bool)
(declare-fun p46() Bool)
(declare-fun p60() Bool)
(declare-fun p33() Bool)
(declare-fun p43() Bool)
(assert
(and (or p20 p94 p74) (or (not p18) (not p86) (not p45)) (or (not p92) p57 p81) (or p28 (not p32) p24) (or p0 (not p7) p8) (or (not p5) p91 p20) (or p37 p16 p55) (or p70 p79 p15) (or (not p75) p48 p22) (or (not p7) (not p78) p91) (or p68 (not p56) (not p25)) (or (not p74) p3 (not p71)) (or p16 (not p88) (not p67)) (or p25 p95 (not p71)) (or p75 p83 (not p56)) (or p89 p20 p98) (or (not p25) (not p1) p63) (or p67 (not p59) p92) (or (not p17) p11 p2) (or (not p62) (not p14) (not p89)) (or (not p99) (not p88) p31) (or p93 (not p70) p81) (or p32 (not p29) (not p83)) (or (not p71) (not p76) (not p48)) (or p63 p38 (not p23)) (or p2 p84 p12) (or (not p50) p15 (not p25)) (or p66 (not p79) p30) (or (not p56) (not p79) p42) (or p47 p25 (not p64)) (or (not p20) p95 p94) (or (not p44) (not p10) p48) (or p76 (not p89) p2) (or (not p95) (not p63) (not p4)) (or p66 (not p64) (not p80)) (or p97 (not p7) p61) (or (not p2) p17 (not p74)) (or (not p65) p64 (not p26)) (or (not p13) p38 p40) (or (not p89) p56 p87) (or (not p30) p98 p82) (or p67 p53 p41) (or (not p71) p15 p92) (or p4 (not p83) p84) (or p52 p72 (not p61)) (or (not p62) p79 (not p77)) (or p23 p84 p95) (or (not p17) (not p77) (not p99)) (or (not p31) (not p80) p31) (or p24 p21 p49) (or p2 (not p66) (not p75)) (or (not p42) p50 (not p96)) (or p78 (not p2) p97) (or p14 p51 (not p13)) (or p38 p96 (not p17)) (or p32 (not p32) p64) (or (not p80) p40 p89) (or p32 (not p17) (not p10)) (or (not p88) (not p14) (not p69)) (or p32 p57 p19) (or p32 p38 p83) (or p74 p27 (not p86)) (or p74 p20 p30) (or (not p55) p87 (not p67)) (or (not p28) p99 p12) (or (not p44) p13 (not p22)) (or p17 p18 p61) (or (not p34) (not p19) p28) (or (not p8) p66 (not p59)) (or (not p98) (not p39) p52) (or (not p37) (not p73) p30) (or p67 (not p29) p83) (or p40 (not p79) (not p30)) (or (not p38) (not p24) (not p6)) (or (not p89) p87 p64) (or p41 p92 p7) (or (not p11) (not p5) p78) (or p68 p89 (not p14)) (or (not p15) (not p85) p66) (or (not p86) (not p29) (not p32)) (or (not p31) p32 (not p25)) (or (not p69) p81 (not p34)) (or (not p90) (not p92) (not p71)) (or p31 (not p98) (not p7)) (or p85 p13 (not p77)) (or p38 (not p19) (not p80)) (or p75 p6 (not p50)) (or p36 p86 p79) (or (not p26) p94 (not p42)) (or (not p80) (not p16) (not p67)) (or p35 (not p95) (not p64)) (or p3 (not p99) (not p19)) (or (not p93) (not p12) (not p18)) (or p40 p39 (not p41)) (or (not p54) (not p36) p90) (or (not p40) (not p65) (not p76)) (or p40 p48 p98) (or p78 (not p38) p86) (or p37 (not p5) (not p15)) (or (not p83) p13 (not p17)) (or p89 (not p58) (not p77)) (or (not p65) (not p64) p14) (or p13 (not p66) (not p77)) (or (not p9) (not p42) (not p26)) (or p74 (not p29) (not p53)) (or (not p5) p70 (not p32)) (or p4 (not p40) (not p32)) (or p16 p41 p63) (or p77 (not p0) p62) (or (not p90) (not p19) (not p50)) (or p46 (not p70) (not p60)) (or p79 p12 (not p12)) (or p6 (not p54) p29) (or (not p83) p11 p4) (or p65 p63 (not p18)) (or p74 p10 p90) (or p19 p16 p75) (or (not p31) p67 (not p81)) (or (not p90) p92 (not p70)) (or (not p68) (not p33) (not p87)) (or p22 p36 p51) (or p72 p24 (not p76)) (or (not p91) (not p71) (not p8)) (or p98 p60 (not p58)) (or (not p50) (not p19) (not p42)) (or (not p33) p22 (not p54)) (or (not p27) (not p14) p49) (or p51 (not p99) (not p73)) (or p0 p69 (not p12)) (or p20 (not p17) p21) (or p13 (not p18) (not p6)) (or (not p88) p98 p89) (or (not p78) (not p60) (not p75)) (or (not p81) (not p78) p72) (or p10 (not p36) (not p24)) (or (not p37) (not p75) p94) (or (not p62) (not p94) (not p72)) (or (not p55) p95 (not p39)) (or p98 (not p66) p16) (or (not p27) (not p32) (not p92)) (or p28 (not p96) (not p77)) (or (not p36) p62 p82) (or (not p68) (not p44) p78) (or (not p24) p17 (not p18)) (or (not p66) (not p57) (not p40)) (or (not p87) (not p80) p3) (or (not p70) (not p74) p72) (or p0 p22 p49) (or p22 p81 (not p63)) (or p14 (not p79) p20) (or p83 p74 p8) (or (not p59) (not p85) (not p33)) (or (not p14) (not p67) (not p90)) (or (not p14) (not p49) (not p1)) (or p38 p66 (not p7)) (or p27 (not p36) (not p28)) (or (not p64) (not p53) (not p7)) (or p85 (not p40) (not p75)) (or p57 p11 p62) (or (not p13) (not p22) p56) (or (not p8) (not p93) (not p51)) (or (not p42) p15 (not p35)) (or p43 p81 (not p31)) (or (not p28) (not p69) (not p28)) (or (not p42) (not p73) (not p72)) (or p7 (not p15) (not p91)) (or (not p99) (not p64) p81) (or (not p87) (not p31) p57) (or (not p17) (not p29) (not p42)) (or (not p96) p7 p16) (or (not p96) p85 (not p8)) (or (not p80) p21 p47) (or p63 (not p79) p23) (or (not p92) p38 (not p88)) (or p85 p67 (not p28)) (or (not p57) (not p9) p35) (or p49 p9 (not p10)) (or p14 (not p48) (not p71)) (or (not p66) (not p53) (not p90)) (or p31 (not p11) p61) (or p10 (not p62) (not p21)) (or p78 p91 (not p61)) (or p11 (not p55) (not p49)) (or p14 (not p80) (not p93)) (or p83 (not p58) (not p91)) (or p17 p28 (not p70)) (or p30 p12 (not p16)) (or (not p60) (not p79) (not p78)) (or p58 (not p34) p85) (or (not p99) (not p5) p22) (or p60 (not p42) (not p4)) (or p94 p58 p79) (or (not p4) p84 (not p62)) (or p64 p74 (not p19)) (or (not p33) p43 p53) (or (not p29) (not p78) p40) (or p30 p70 p98) (or (not p23) (not p41) (not p98)) (or (not p28) p1 (not p18)) (or (not p2) p3 (not p21)) (or (not p43) p35 (not p84)) (or p80 p3 (not p47)) (or p73 (not p86) (not p89)) (or (not p41) (not p22) (not p99)) (or (not p76) (not p99) (not p72)) (or p32 p82 (not p78)) (or p26 p70 p90) (or p72 (not p99) (not p39)) (or (not p33) p54 (not p26)) (or (not p34) p37 (not p35)) (or p41 p87 p47) (or p48 (not p51) (not p34)) (or p60 (not p0) p34) (or p25 (not p51) (not p36)) (or p17 (not p39) p9) (or (not p68) p68 (not p15)) (or (not p61) (not p25) (not p85)) (or p89 (not p60) (not p70)) (or p88 p5 (not p3)) (or p47 p54 (not p44)) (or (not p8) (not p96) p25) (or p64 p92 (not p25)) (or p41 (not p68) p4) (or p53 p78 (not p99)) (or p44 p47 (not p94)) (or (not p22) p98 (not p30)) (or p4 (not p70) p52) (or p25 (not p41) (not p39)) (or (not p77) p52 p8) (or (not p28) (not p14) p57) (or p93 (not p36) p12) (or p86 p50 (not p40)) (or p77 p19 p61) (or (not p79) (not p63) p24) (or p51 p79 (not p6)) (or (not p88) p0 (not p5)) (or p55 p77 p4) (or (not p44) (not p8) p22) (or (not p10) p37 p59) (or (not p30) (not p53) p11) (or (not p56) (not p93) (not p41)) (or (not p69) p33 p79) (or p59 p70 p20) (or p91 p80 p75) (or (not p99) p51 (not p12)) (or (not p71) p15 (not p81)) (or (not p69) p19 (not p48)) (or p69 p58 p6) (or p29 (not p4) (not p37)) (or p94 p30 p50) (or p32 (not p30) (not p97)) (or (not p50) (not p31) p1) (or (not p48) p41 (not p57)) (or (not p15) p11 (not p50)) (or (not p67) (not p92) (not p14)) (or (not p18) p31 p60) (or (not p20) (not p60) (not p35)) (or (not p9) (not p18) p40) (or (not p59) p20 p25) (or p93 (not p90) (not p85)) (or p88 p98 p69) (or p3 p20 p48) (or (not p63) (not p96) p22) (or (not p96) p61 (not p31)) (or p33 p25 p54) (or p93 (not p62) (not p2)) (or p28 p45 p51) (or p18 p52 p36) (or (not p45) (not p49) (not p75)) (or p14 p43 p42) (or p17 (not p21) p36) (or (not p93) (not p48) p37) (or p96 p33 (not p14)) (or (not p6) (not p72) p53) (or p36 p29 (not p7)) (or p71 p61 p40) (or p1 p18 p48) (or (not p54) p27 p69) (or (not p47) (not p19) (not p94)) (or p74 (not p69) p20) (or p5 p40 (not p82)) (or (not p5) (not p77) (not p97)) (or (not p54) p41 p37) (or p22 (not p56) p69) (or p47 p46 p70) (or (not p33) p33 (not p4)) (or (not p47) p51 p38) (or p93 (not p53) p78) (or (not p68) p42 (not p68)) (or (not p87) (not p30) (not p92)) (or p64 p75 p27) (or (not p46) p1 p29) (or p74 p27 p15) (or (not p88) (not p32) (not p71)) (or p33 (not p82) (not p14)) (or (not p27) p44 p22) (or (not p73) (not p25) (not p23)) (or p15 p28 p37) (or (not p33) p48 (not p13)) (or (not p79) (not p85) p48) (or (not p54) p70 (not p81)) (or (not p44) (not p70) (not p49)) (or p12 p18 (not p89)) (or p52 p27 (not p74)) (or p47 (not p98) (not p70)) (or p69 p37 (not p43)) (or p83 (not p52) p18) (or (not p30) p49 (not p33)) (or (not p35) p55 (not p54)) (or p20 (not p90) (not p35)) (or (not p24) p70 p10) (or p42 p50 (not p91)) (or (not p91) (not p80) p65) (or (not p24) p65 p44) (or p41 p71 (not p63)) (or p75 p68 (not p92)) (or (not p84) p75 p60) (or (not p98) (not p21) p23) (or p27 p97 (not p79)) (or p55 p7 (not p33)) (or p92 p46 p53) (or (not p2) p31 p47) (or (not p45) p48 p50) (or (not p86) (not p35) p63) (or (not p72) (not p82) p77) (or (not p51) (not p50) p90) (or p12 (not p78) (not p54)) (or (not p15) p22 (not p33)) (or p79 p63 (not p7)) (or (not p35) (not p34) (not p27)) (or p70 (not p73) p18) (or (not p31) p43 (not p62)) (or (not p81) p98 (not p6)) (or (not p6) p71 (not p64)) (or p25 p71 (not p42)) (or p8 (not p80) (not p33)) (or p75 (not p53) (not p60)) (or p35 (not p12) (not p46)) (or p29 p15 p9) (or p7 p67 (not p36)) (or p67 (not p76) (not p83)) (or (not p86) (not p82) (not p79)) (or p39 p97 p65) (or p98 p13 p85) (or p65 p36 (not p45)) (or (not p65) p99 (not p55)) (or p43 (not p93) (not p11)) (or p89 (not p15) (not p7)) (or (not p9) (not p0) p7) (or (not p70) (not p72) p48) (or p61 (not p65) p14) (or p52 (not p14) (not p69)) (or (not p16) p22 (not p91)) (or (not p49) (not p40) (not p61)) (or (not p83) p88 p98) (or p38 (not p42) (not p76)) (or (not p73) (not p52) (not p75)) (or (not p3) (not p22) (not p50)) (or (not p46) (not p91) (not p11)) (or (not p13) (not p28) p60) (or p49 (not p32) p86) (or p51 (not p23) (not p46)) (or p87 (not p42) p53) (or (not p90) (not p50) (not p73)) (or p70 p27 p58) (or (not p34) p88 p41) (or (not p34) p13 (not p7)) (or (not p80) p40 (not p0)) (or (not p10) (not p8) p89) (or (not p22) (not p42) p5) (or (not p70) (not p38) p14) (or p41 p16 p90) (or (not p81) p26 (not p29)) (or p75 p1 (not p81)) (or p24 (not p67) (not p59)) (or p5 (not p73) p32) (or p25 (not p44) (not p99)) (or (not p87) p46 (not p65)) (or (not p30) p89 (not p54)) (or (not p80) p25 (not p94)) (or p58 (not p85) p87) (or p24 (not p19) p77) (or (not p40) (not p67) p79) (or p59 p94 (not p37)) (or p28 p32 (not p38)) (or (not p32) (not p17) (not p29)) (or p2 p73 p48) (or p70 (not p84) (not p63)) (or (not p10) (not p53) (not p41)) (or p84 (not p68) p9) (or (not p33) (not p81) p29) (or (not p84) (not p58) p31) (or (not p1) (not p3) p58) (or p66 p67 p27) (or (not p75) (not p72) (not p27)) (or p8 p42 (not p30)) (or p43 (not p66) p54) (or (not p14) (not p66) (not p54)) (or p47 (not p7) (not p35)) (or (not p13) (not p54) (not p78)) (or p63 (not p21) (not p8)) (or p40 (not p78) p45) (or (not p86) (not p21) p95) (or (not p98) (not p61) p65) (or (not p32) p28 p25) (or p84 p52 p21) (or (not p36) p65 p88) (or (not p92) (not p51) (not p73)) (or (not p93) p53 p26) (or (not p90) (not p91) p28) (or p42 (not p60) p31) (or p40 p50 p12) (or (not p80) (not p1) (not p1)) (or p29 p32 p20) (or p77 (not p84) (not p30)) (or p96 (not p14) (not p95)) (or p40 p59 p65) (or (not p83) (not p23) (not p4)) (or p30 (not p69) (not p99)) (or p54 (not p64) (not p29)))
)
(check-sat)
(get-model)
